# Solution for model barriers
# Objective value = 1.3642741223738987e+01
yL1 0
dL1 7.0205698834830743e+00
difL1[0] 5.6996777907077316e+00
difL1[1] 4.0990333721231931e+00
yL1p 1
dL1p 9.1706052687394077e+00
difL1p[0] 8.6996777907077316e+00
difL1p[1] 2.9009666278768069e+00
y1R 0
d1R 8.60232526699365
dif1R[0] 7.0000000001404281e+00
dif1R[1] 4.9999999997191384e+00
y1pR 1
d1pR 4.47213595499958
dif1Rp[0] 4.0000000001404281e+00
dif1Rp[1] 2.0000000002808629e+00
yLR 0
dLR 1.2731596789676750e+01
difLR[0] 1.2699677790848160e+01
difLR[1] 9.0096662759594537e-01
gammaL 0
deltaL 0
xR[0] 1.7000000000140428e+01
xR[1] 8.9999999997191384e+00
xL[0] 4.3003222092922693e+00
xL[1] 8.0990333721231931e+00
alpha1 5.5567216664270613e-01
alpha1p 1.0957331654170146e+00
beta1 0
mu1 3.0032220929226927e-01
mu2 1.4042811358194740e-10
